
Gurobi 6.0.4 (win64) logging started 06/16/15 09:24:28

Read LP format model from file C:\MT\repository\VRPTWMS\instances\mip\fuel\TestInstance2Fuel_No_1.lp
Reading time = 0.00 seconds
(null): 82 rows, 53 columns, 270 nonzeros
Optimize a model with 82 rows, 53 columns and 270 nonzeros
Model has 36 quadratic constraints
Coefficient statistics:
  Matrix range    [1e+00, 3e+02]
  Objective range [5e+00, 1e+02]
  Bounds range    [1e+00, 3e+02]
  RHS range       [1e+00, 3e+02]
Presolve removed 35 rows and 20 columns
Presolve time: 0.00s
Presolved: 87 rows, 54 columns, 345 nonzeros
Variable types: 19 continuous, 35 integer (21 binary)
Found heuristic solution: objective 445.0000000

Root relaxation: objective 2.350000e+02, 23 iterations, 0.00 seconds

    Nodes    |    Current Node    |     Objective Bounds      |     Work
 Expl Unexpl |  Obj  Depth IntInf | Incumbent    BestBd   Gap | It/Node Time

     0     0  235.00000    0    8  445.00000  235.00000  47.2%     -    0s
H    0     0                     340.0000000  235.00000  30.9%     -    0s
     0     0  247.00000    0   13  340.00000  247.00000  27.4%     -    0s
     0     0     cutoff    0       340.00000  335.00034  1.47%     -    0s

Cutting planes:
  Learned: 1
  Gomory: 1
  Clique: 1
  MIR: 5

Explored 0 nodes (71 simplex iterations) in 0.01 seconds
Thread count was 2 (of 4 available processors)

Optimal solution found (tolerance 1.00e-04)
Best objective 3.400000000000e+02, best bound 3.400000000000e+02, gap 0.0%
k_c1	260.0
k_c2	40.0
k_c3	300.0
k_dN	-0.0
o_1	1.0
o_2	0.0
o_3	0.0
p_1	1.0
p_2	-0.0
p_3	1.0
phi_c1	0.0
phi_c2	79.0
phi_c3	0.0
phi_dN	0.0
pi_c1	200.0
pi_c2	200.0
pi_c3	100.0
pi_dN	-0.0
tauD_c1	30.0
tauD_c2	60.0
tauD_c3	20.0
tauD_d0	-0.0
tauD_dN	100.0
tauS_c1	30.0
tauS_c2	80.0
tauS_c3	50.0
tauS_d0	-0.0
tauS_dN	100.0
x_c1_c2	1.0
x_c2_dN	1.0
x_c3_dN	1.0
x_d0_c1	1.0
x_d0_c3	1.0
z_c1_c3	1.0
z_c3_dN	1.0
z_d0_c1	1.0
